0 98 
1 101 
2 103 
3 104 
4 102 
5 102 
6 100 
7 100 
8 101 
9 103 
10 101 
11 100 
12 101 
13 97 
14 99 
15 97 
16 96 
17 97 
18 96 
19 94 
20 92 
21 91 
22 90 
23 88 
24 86 
25 86 
26 85 
27 85 
28 88 
29 86 
30 87 
31 86 
32 83 
33 80 
34 79 
35 78 
36 77 
37 74 
38 73 
39 73 
40 74 
41 71 
42 70 
43 69 
44 68 
45 66 
46 67 
47 65 
48 64 
49 64 
50 62 
51 61 
52 62 
53 61 
54 61 
55 60 
56 57 
57 56 
58 53 
59 52 
60 51 
61 52 
62 52 
63 50 
64 51 
65 48 
66 49 
67 51 
68 50 
69 47 
70 46 
71 46 
72 45 
73 44 
74 42 
75 40 
76 38 
77 37 
78 38 
79 38 
80 38 
81 37 
82 35 
83 32 
84 32 
85 30 
86 28 
87 26 
88 25 
89 24 
90 23 
91 23 
92 22 
93 23 
94 21 
95 19 
96 18 
97 19 
98 17 
99 14 
100 14 
101 14 
102 16 
103 14 
104 13 
105 11 
106 9 
107 8 
108 9 
109 8 
110 7 
111 6 
112 5 
113 4 
114 3 
115 2 
116 2 
117 2 
118 3 
119 2 
120 1 
121 1 
122 0 
123 0 

